Welcome to the CBC MILP Solver 
Version: 2.8.9 
Build Date: Nov 24 2015 

command line - /vol/cc/opt/maxeler/maxcompiler-2015.2/bin/cbc sliding_window00_schedule_C.mps.gz -threads 4 -solve -printi csv -solu sliding_window00_schedule_C.csv (default strategy 1)
At line 1 NAME           CxSchedule
At line 2 ROWS
At line 3187 COLUMNS
At line 7780 RHS
At line 9373 BOUNDS
At line 11326 ENDATA
Problem CxSchedule has 3183 rows, 1952 columns and 7955 elements
Coin0008I CxSchedule read with 0 errors
threads was changed from 0 to 4
Continuous objective value is 36 - 0.05 seconds
Cgl0003I 0 fixed, 1971 tightened bounds, 0 strengthened rows, 0 substitutions
Cgl0003I 0 fixed, 34 tightened bounds, 0 strengthened rows, 0 substitutions
Cgl0003I 0 fixed, 20 tightened bounds, 0 strengthened rows, 0 substitutions
Cgl0003I 0 fixed, 7 tightened bounds, 0 strengthened rows, 0 substitutions
Cgl0003I 0 fixed, 1 tightened bounds, 0 strengthened rows, 0 substitutions
Cgl0004I processed model has 3183 rows, 1948 columns (1948 integer) and 7955 elements
Cutoff increment increased from 1e-05 to 0.9999
Cbc0012I Integer solution of 36 found by DiveCoefficient after 0 iterations and 0 nodes (0.12 seconds)
Cbc0030I Thread 0 used 0 times,  waiting to start 0.012056828, 0 cpu time, 0 locks, 0 locked, 0 waiting for locks
Cbc0030I Thread 1 used 0 times,  waiting to start 0.0098724365, 0 cpu time, 0 locks, 0 locked, 0 waiting for locks
Cbc0030I Thread 2 used 0 times,  waiting to start 0.0073902607, 0 cpu time, 0 locks, 0 locked, 0 waiting for locks
Cbc0030I Thread 3 used 0 times,  waiting to start 0.0048401356, 0 cpu time, 0 locks, 0 locked, 0 waiting for locks
Cbc0030I Main thread 0 waiting for threads,  1 locks, 7.8678131e-06 locked, 2.3841858e-07 waiting for locks
Cbc0001I Search completed - best objective 36, took 0 iterations and 0 nodes (0.14 seconds)
Cbc0035I Maximum depth 0, 0 variables fixed on reduced cost
Cuts at root node changed objective from 36 to 36
Probing was tried 0 times and created 0 cuts of which 0 were active after adding rounds of cuts (0.000 seconds)
Gomory was tried 0 times and created 0 cuts of which 0 were active after adding rounds of cuts (0.000 seconds)
Knapsack was tried 0 times and created 0 cuts of which 0 were active after adding rounds of cuts (0.000 seconds)
Clique was tried 0 times and created 0 cuts of which 0 were active after adding rounds of cuts (0.000 seconds)
MixedIntegerRounding2 was tried 0 times and created 0 cuts of which 0 were active after adding rounds of cuts (0.000 seconds)
FlowCover was tried 0 times and created 0 cuts of which 0 were active after adding rounds of cuts (0.000 seconds)
TwoMirCuts was tried 0 times and created 0 cuts of which 0 were active after adding rounds of cuts (0.000 seconds)

Result - Optimal solution found

Objective value:                36.00000000
Enumerated nodes:               0
Total iterations:               0
Time (CPU seconds):             0.18
Time (Wallclock seconds):       0.19

Option for printingOptions changed from normal to csv
Total time (CPU seconds):       0.19   (Wallclock seconds):       0.20

